#######################################
### Exact MIP solver for the HHCRSP ###
#######################################
-- Instance file: new-instances/HHCRSP_200_40_80_1.0_C_R.txt
-- Max threads: 4
-- Time limit: 999999 seconds
-- Use initial solution: No
Trivial flow violations prevented generating 373254 variables.
Version identifier: 20.1.0.0 | 2020-11-10 | 9bedb6d68
CPXPARAM_Threads                                 4
CPXPARAM_TimeLimit                               999999
Parallel mode: deterministic, using up to 4 threads for concurrent optimization:
 * Starting dual Simplex on 1 thread...
 * Starting Barrier on 3 threads...
Tried aggregator 1 time.
LP Presolve eliminated 24708 rows and 6580 columns.
Reduced LP has 496564 rows, 470995 columns, and 9466570 nonzeros.
Presolve time = 19.14 sec. (2142.89 ticks)
Symmetry aggregator did 807083 additional substitutions.
Initializing dual steep norms . . .

Iteration log . . .
Iteration:     1   Dual objective     =             0.333333

Dual crossover.
  Dual:  Fixing 1152 variables.
     1151 DMoves:  Infeasibility  7.12263593e-13  Objective  3.14000000e+02
        0 DMoves:  Infeasibility  8.15403312e-13  Objective  3.14000000e+02
  Dual:  Pushed 40, exchanged 1112.
  Primal:  Fixing 928 variables.
      927 PMoves:  Infeasibility  1.24900090e-16  Objective  3.14000000e+02
        0 PMoves:  Infeasibility  1.24900090e-16  Objective  3.14000000e+02
  Primal:  Pushed 827, exchanged 101.

Dual simplex solved model.


Solution status from MIP model:
-- Processing time: 32.766 sec.
-- Memory used: 481.334 MB
-- Best bound: inf
-- Obj value: 314
-- Gap: inf%
-- Total distance: 942
-- Total tardiness: 0
-- Largest tardiness: 0
